assets/logs/17_10x10_clingo/17_10x10_clingo.solution.log

-----------------------------------------
|  9| 15| 21|  0| 46|  0| 78| 36| 74|  0|
-----------------------------------------
| 19| 22| 11|  0| 23| 50| 28| 42| 80| 38|
-----------------------------------------
| 13|  7| 17| 48| 26| 44| 82| 76| 34| 72|
-----------------------------------------
| 20| 53| 24| 25| 52|  0| 43| 30| 40|  0|
-----------------------------------------
|  5| 27| 49| 55| 45| 84| 54| 39| 70| 32|
-----------------------------------------
| 51| 18|  3| 29| 56| 41|  0| 33| 60| 37|
-----------------------------------------
|  0| 79| 57| 47| 86| 31| 58| 64|  2| 68|
-----------------------------------------
| 59|  1| 16| 81| 87|  0|  8| 69| 35| 62|
-----------------------------------------
| 77| 83| 61| 12| 73| 88| 65|  0| 66|  4|
-----------------------------------------
|  0| 14| 75| 85| 63| 10| 71|  6| 67|  0|
-----------------------------------------

| n = 10 | k = 9 | coverage = 96, 96.0%
 Time 300.001
 Name 17_10x10_clingo

