assets/logs/17_10x10_clingo/17_10x10_clingo.log
clingo version 5.4.0
Reading from ...s/logs/17_10x10_clingo/knights_tour.lp ...
Solving...
Answer: 1
occ(1,2,4) occ(1,4,6) occ(1,9,8) occ(1,8,6) occ(1,7,1) occ(1,6,7) occ(1,1,10) occ(1,4,10) occ(1,1,4) occ(2,8,2) occ(3,7,9) coverage(6)
Optimization: -6
Answer: 2
occ(1,2,4) occ(1,4,6) occ(1,9,8) occ(1,8,6) occ(1,7,1) occ(1,6,7) occ(1,1,10) occ(1,4,10) occ(1,1,4) occ(2,8,2) occ(3,7,9) coverage(7) occ(4,6,1) occ(6,7,3)
Optimization: -7
Answer: 3
occ(1,2,4) occ(1,4,6) occ(1,9,8) occ(1,8,6) occ(1,7,1) occ(1,6,7) occ(1,1,10) occ(1,4,10) occ(1,1,4) occ(2,8,2) occ(3,7,9) coverage(46) occ(18,1,7) occ(22,1,9) occ(36,1,8) occ(39,1,5) occ(44,1,6) occ(79,1,3) occ(34,2,6) occ(38,2,10) occ(41,2,7) occ(42,2,8) occ(61,2,3) occ(65,2,5) occ(81,2,1) occ(16,3,6) occ(20,3,8) occ(24,3,10) occ(37,3,4) occ(43,3,9) occ(59,3,1) occ(67,3,7) occ(77,3,2) occ(21,4,3) occ(26,4,8) occ(32,4,5) occ(35,4,2) occ(40,4,9) occ(63,4,4) occ(14,5,7) occ(19,5,1) occ(28,5,6) occ(33,5,4) occ(45,5,10) occ(57,5,2) occ(69,5,8) occ(75,5,3) occ(12,6,5) occ(23,6,2) occ(30,6,4) occ(47,6,8) occ(71,6,6) occ(10,7,7) occ(17,7,2) occ(31,7,5) occ(49,7,6) occ(55,7,3) occ(73,7,4) occ(7,8,8) occ(8,8,5) occ(25,8,1) occ(51,8,4) occ(5,9,10) occ(6,9,3) occ(11,9,5) occ(15,9,1) occ(29,9,4) occ(53,9,2) occ(4,10,1) occ(9,10,7) occ(13,10,3) occ(27,10,2)
Optimization: -46
Answer: 4
occ(1,2,4) occ(1,4,6) occ(1,9,8) occ(1,8,6) occ(1,7,1) occ(1,6,7) occ(1,1,10) occ(1,4,10) occ(1,1,4) occ(2,8,2) occ(3,7,9) coverage(72) occ(43,1,7) occ(44,1,6) occ(47,1,5) occ(51,1,9) occ(58,1,3) occ(68,1,8) occ(41,2,9) occ(46,2,8) occ(49,2,7) occ(60,2,1) occ(66,2,6) occ(70,2,10) occ(26,3,3) occ(38,3,1) occ(42,3,5) occ(45,3,6) occ(50,3,7) occ(53,3,8) occ(56,3,2) occ(64,3,4) occ(71,3,9) occ(24,4,1) occ(34,4,4) occ(39,4,8) occ(40,4,3) occ(48,4,9) occ(52,4,5) occ(62,4,2) occ(69,4,7) occ(27,5,7) occ(28,5,4) occ(32,5,6) occ(36,5,2) occ(37,5,10) occ(54,5,3) occ(55,5,9) occ(67,5,5) occ(73,5,8) occ(10,6,4) occ(14,6,6) occ(22,6,2) occ(25,6,5) occ(29,6,9) occ(35,6,8) occ(75,6,10) occ(8,7,2) occ(19,7,3) occ(20,7,4) occ(30,7,5) occ(31,7,7) occ(57,7,10) occ(65,7,6) occ(77,7,8) occ(12,8,5) occ(13,8,3) occ(16,8,7) occ(23,8,4) occ(33,8,9) occ(63,8,8) occ(85,8,1) occ(5,9,10) occ(6,9,1) occ(9,9,6) occ(17,9,4) occ(18,9,5) occ(21,9,2) occ(59,9,9) occ(79,9,7) occ(83,9,3) occ(4,10,3) occ(7,10,8) occ(11,10,4) occ(15,10,2) occ(61,10,7) occ(81,10,5)
Optimization: -72
Answer: 5
occ(1,2,4) occ(1,4,6) occ(1,9,8) occ(1,8,6) occ(1,7,1) occ(1,6,7) occ(1,1,10) occ(1,4,10) occ(1,1,4) occ(2,8,2) occ(3,7,9) coverage(73) occ(22,1,1) occ(28,1,2) occ(47,1,9) occ(51,1,7) occ(58,1,3) occ(24,2,3) occ(32,2,5) occ(45,2,7) occ(54,2,6) occ(59,2,8) occ(60,2,1) occ(70,2,2) occ(20,3,2) occ(26,3,1) occ(30,3,3) occ(43,3,5) occ(46,3,9) occ(49,3,8) occ(50,3,7) occ(53,3,6) occ(56,3,4) occ(57,3,10) occ(34,4,4) occ(41,4,7) occ(52,4,5) occ(55,4,8) occ(61,4,9) occ(62,4,2) occ(68,4,3) occ(72,4,1) occ(14,5,3) occ(18,5,1) occ(27,5,7) occ(36,5,2) occ(39,5,9) occ(40,5,6) occ(44,5,10) occ(48,5,8) occ(64,5,4) occ(10,6,6) occ(25,6,5) occ(29,6,9) occ(38,6,4) occ(42,6,8) occ(63,6,10) occ(66,6,2) occ(11,7,5) occ(12,7,4) occ(16,7,2) occ(19,7,3) occ(31,7,7) occ(37,7,10) occ(69,7,6) occ(8,8,5) occ(9,8,7) occ(13,8,3) occ(23,8,4) occ(35,8,8) occ(65,8,9) occ(5,9,10) occ(6,9,3) occ(17,9,4) occ(21,9,2) occ(33,9,6) occ(67,9,7) occ(71,9,5) occ(4,10,1) occ(7,10,8) occ(15,10,2)
Optimization: -73
Answer: 6
occ(1,2,4) occ(1,4,6) occ(1,9,8) occ(1,8,6) occ(1,7,1) occ(1,6,7) occ(1,1,10) occ(1,4,10) occ(1,1,4) occ(2,8,2) occ(3,7,9) coverage(86) occ(17,1,6) occ(25,1,8) occ(31,1,7) occ(35,1,3) occ(70,1,1) occ(74,1,5) occ(78,1,9) occ(85,1,2) occ(13,2,9) occ(19,2,8) occ(23,2,10) occ(27,2,6) occ(33,2,5) occ(39,2,2) occ(56,2,1) occ(72,2,3) occ(76,2,7) occ(7,3,9) occ(15,3,7) occ(24,3,6) occ(29,3,8) occ(37,3,4) occ(50,3,5) occ(54,3,3) occ(68,3,2) occ(80,3,10) occ(83,3,1) occ(11,4,8) occ(21,4,9) occ(41,4,1) occ(58,4,2) occ(66,4,4) occ(84,4,7) occ(5,5,8) occ(9,5,10) occ(18,5,1) occ(22,5,5) occ(26,5,7) occ(48,5,6) occ(52,5,4) occ(62,5,3) occ(81,5,2) occ(82,5,9) occ(20,6,3) occ(38,6,8) occ(43,6,2) occ(46,6,4) occ(47,6,6) occ(51,6,10) occ(57,6,9) occ(60,6,1) occ(64,6,5) occ(16,7,2) occ(28,7,6) occ(36,7,10) occ(45,7,4) occ(49,7,8) occ(55,7,7) occ(71,7,5) occ(79,7,3) occ(6,8,4) occ(12,8,3) occ(40,8,7) occ(44,8,5) occ(53,8,9) occ(59,8,10) occ(63,8,8) occ(77,8,1) occ(8,9,2) occ(14,9,1) occ(30,9,5) occ(34,9,9) occ(65,9,10) occ(69,9,6) occ(73,9,4) occ(4,10,3) occ(10,10,4) occ(32,10,7) occ(42,10,6) occ(61,10,9) occ(67,10,8) occ(75,10,2)
Optimization: -86
Answer: 7
occ(1,2,4) occ(1,4,6) occ(1,9,8) occ(1,8,6) occ(1,7,1) occ(1,6,7) occ(1,1,10) occ(1,4,10) occ(1,1,4) occ(2,8,2) occ(3,7,9) coverage(87) occ(10,1,3) occ(41,1,8) occ(59,1,9) occ(71,1,7) occ(77,1,6) occ(82,1,5) occ(86,1,1) occ(8,2,1) occ(43,2,6) occ(50,2,10) occ(61,2,7) occ(69,2,5) occ(73,2,9) occ(78,2,2) occ(79,2,8) occ(84,2,3) occ(12,3,2) occ(29,3,6) occ(39,3,9) occ(52,3,8) occ(57,3,10) occ(63,3,5) occ(67,3,3) occ(75,3,7) occ(80,3,4) occ(6,4,2) occ(16,4,3) occ(27,4,4) occ(45,4,5) occ(48,4,9) occ(55,4,8) occ(76,4,1) occ(81,4,7) occ(13,5,6) occ(14,5,1) occ(18,5,5) occ(25,5,2) occ(30,5,3) occ(31,5,7) occ(37,5,8) occ(54,5,9) occ(65,5,4) occ(4,6,1) occ(11,6,8) occ(20,6,3) occ(33,6,5) occ(46,6,10) occ(47,6,4) occ(53,6,9) occ(74,6,2) occ(83,6,6) occ(15,7,5) occ(23,7,3) occ(28,7,2) occ(32,7,4) occ(35,7,7) occ(44,7,8) occ(49,7,6) occ(56,7,10) occ(9,8,9) occ(22,8,4) occ(42,8,10) occ(51,8,8) occ(64,8,7) occ(72,8,1) occ(85,8,5) occ(5,9,10) occ(17,9,6) occ(21,9,2) occ(26,9,1) occ(34,9,3) occ(38,9,7) occ(58,9,9) occ(62,9,5) occ(68,9,4) occ(7,10,8) occ(19,10,4) occ(24,10,3) occ(36,10,5) occ(40,10,9) occ(60,10,7) occ(66,10,6) occ(70,10,2)
Optimization: -87
Answer: 8
occ(1,2,4) occ(1,4,6) occ(1,9,8) occ(1,8,6) occ(1,7,1) occ(1,6,7) occ(1,1,10) occ(1,4,10) occ(1,1,4) occ(2,8,2) occ(3,7,9) coverage(88) occ(52,1,6) occ(58,1,7) occ(59,1,5) occ(62,1,3) occ(65,1,8) occ(71,1,9) occ(76,1,2) occ(86,1,1) occ(18,2,2) occ(56,2,9) occ(57,2,7) occ(60,2,5) occ(63,2,6) occ(67,2,10) occ(72,2,1) occ(75,2,8) occ(84,2,3) occ(50,3,5) occ(54,3,7) occ(55,3,9) occ(61,3,4) occ(64,3,2) occ(69,3,8) occ(73,3,10) occ(74,3,3) occ(77,3,6) occ(78,3,1) occ(9,4,9) occ(16,4,1) occ(20,4,3) occ(48,4,7) occ(51,4,8) occ(70,4,2) occ(82,4,4) occ(5,5,8) occ(14,5,3) occ(24,5,4) occ(31,5,7) occ(46,5,9) occ(49,5,6) occ(53,5,10) occ(66,5,1) occ(79,5,5) occ(80,5,2) occ(4,6,1) occ(7,6,10) occ(11,6,8) occ(22,6,2) occ(26,6,6) occ(27,6,4) occ(33,6,5) occ(36,6,9) occ(68,6,3) occ(6,7,3) occ(12,7,2) occ(28,7,8) occ(29,7,6) occ(35,7,7) occ(44,7,10) occ(47,7,5) occ(81,7,4) occ(10,8,4) occ(13,8,7) occ(21,8,1) occ(25,8,5) occ(34,8,10) occ(37,8,9) occ(38,8,8) occ(45,8,3) occ(8,9,2) occ(17,9,4) occ(23,9,3) occ(30,9,7) occ(41,9,6) occ(42,9,9) occ(83,9,5) occ(87,9,1) occ(15,10,6) occ(19,10,2) occ(32,10,9) occ(39,10,8) occ(40,10,7) occ(43,10,4) occ(85,10,3)
Optimization: -88
Answer: 9
occ(1,2,4) occ(1,4,6) occ(1,9,8) occ(1,8,6) occ(1,7,1) occ(1,6,7) occ(1,1,10) occ(1,4,10) occ(1,1,4) occ(2,8,2) occ(3,7,9) coverage(89) occ(29,1,6) occ(39,1,3) occ(48,1,8) occ(54,1,9) occ(66,1,5) occ(75,1,7) occ(87,1,1) occ(27,2,8) occ(37,2,5) occ(40,2,1) occ(46,2,6) occ(47,2,2) occ(50,2,10) occ(68,2,7) occ(73,2,9) occ(85,2,3) occ(31,3,5) occ(35,3,7) occ(41,3,2) occ(42,3,3) occ(52,3,8) occ(56,3,10) occ(64,3,4) occ(70,3,9) occ(77,3,6) occ(83,3,1) occ(25,4,9) occ(38,4,2) occ(44,4,5) occ(45,4,3) occ(49,4,1) occ(60,4,7) occ(71,4,8) occ(79,4,4) occ(23,5,7) occ(33,5,6) occ(34,5,3) occ(43,5,1) occ(58,5,9) occ(62,5,5) occ(69,5,10) occ(72,5,8) occ(76,5,4) occ(81,5,2) occ(11,6,10) occ(14,6,4) occ(21,6,9) occ(32,6,5) occ(36,6,1) occ(51,6,2) occ(67,6,8) occ(74,6,6) occ(80,6,3) occ(8,7,2) occ(13,7,8) occ(16,7,6) occ(22,7,7) occ(30,7,3) occ(65,7,10) occ(78,7,5) occ(9,8,9) occ(12,8,3) occ(18,8,8) occ(19,8,10) occ(24,8,5) occ(53,8,1) occ(61,8,7) occ(82,8,4) occ(5,9,10) occ(6,9,3) occ(10,9,1) occ(15,9,7) occ(20,9,6) occ(28,9,2) occ(57,9,4) occ(63,9,9) occ(86,9,5) occ(4,10,1) occ(7,10,8) occ(17,10,9) occ(26,10,4) occ(55,10,2) occ(59,10,6) occ(84,10,3) occ(88,10,7)
Optimization: -89
Answer: 10
occ(1,2,4) occ(1,4,6) occ(1,9,8) occ(1,8,6) occ(1,7,1) occ(1,6,7) occ(1,1,10) occ(1,4,10) occ(1,1,4) occ(2,8,2) occ(3,7,9) coverage(90) occ(10,1,1) occ(16,1,2) occ(22,1,3) occ(37,1,8) occ(47,1,5) occ(75,1,9) occ(79,1,7) occ(12,2,3) occ(20,2,1) occ(23,2,2) occ(24,2,5) occ(29,2,7) occ(39,2,10) occ(43,2,8) occ(51,2,6) occ(81,2,9) occ(8,3,2) occ(14,3,1) occ(18,3,3) occ(27,3,5) occ(35,3,9) occ(45,3,6) occ(49,3,4) occ(73,3,10) occ(77,3,8) occ(83,3,7) occ(21,4,1) occ(25,4,3) occ(26,4,4) occ(31,4,8) occ(41,4,9) occ(44,4,7) occ(53,4,5) occ(54,4,2) occ(6,5,1) occ(28,5,2) occ(33,5,10) occ(40,5,8) occ(46,5,5) occ(50,5,3) occ(55,5,7) occ(56,5,4) occ(71,5,9) occ(85,5,6) occ(4,6,3) occ(19,6,2) occ(30,6,4) occ(34,6,8) occ(38,6,10) occ(42,6,6) occ(52,6,1) occ(57,6,5) occ(61,6,9) occ(32,7,6) occ(48,7,4) occ(58,7,3) occ(59,7,7) occ(65,7,8) occ(69,7,10) occ(80,7,2) occ(87,7,5) occ(9,8,7) occ(17,8,3) occ(36,8,9) occ(60,8,1) occ(63,8,10) occ(70,8,8) occ(82,8,4) occ(88,8,5) occ(5,9,10) occ(13,9,4) occ(62,9,3) occ(66,9,7) occ(67,9,9) occ(74,9,5) occ(78,9,1) occ(84,9,2) occ(89,9,6) occ(7,10,8) occ(11,10,6) occ(15,10,2) occ(64,10,5) occ(68,10,9) occ(72,10,7) occ(76,10,3) occ(86,10,4)
Optimization: -90
*** Info : (clingo): INTERRUPTED by signal!
SATISFIABLE

TIME LIMIT   : 1
Models       : 10+
  Optimum    : unknown
Optimization : -90
Calls        : 1
Time         : 300.000s (Solving: 298.59s 1st Model: 0.00s Unsat: 0.00s)
CPU Time     : 300.001s
